32	0

0	1	2
4	1	3
3	1	4
10	1	5
9	2	6	7
9	1	8
7	2	8	9
10	1	10
9	1	10
6	1	11
7	1	12
4	1	13
4	1	14
2	2	15	16
2	1	17
8	1	17
5	1	18
4	1	19
9	1	20
6	1	21
4	1	22
2	1	23
8	1	24
2	1	25
2	1	26
7	1	27
9	1	28
6	1	29
4	1	30
8	1	31
10	1	32
0	0
